3 48 1 10
7 19 16 12 15 19 18 4 13 19 14 14 10 19 8 9 13 15 13 13 5 20 8 5 2 6 14 7 3 18 10 16 20 9 19 5 15 20 17 1 14 2 20 18 4 8 13 9 
3.21 7.78 2.96 0.98 7.69 0.29 6.57 3.56 2.39 2.35 4.45 1.56 5.52 0.45 4.57 0.79 2.99 1.58 0.55 6.18 5.73 5.45 5.86 0.82 3.03 3.66 0.52 5.96 0.48 4.64 5.72 4.4 5.78 5 7.09 4.63 3 0.66 4.77 0.75 5.34 1.14 5.94 1.82 7.66 3.24 2.94 5.47 
4 4 4 4 4 4 4 4 4 4 4 4 4 4 4 4 4 4 4 4 4 4 4 4 4 4 4 4 4 4 4 4 4 4 4 4 4 4 4 4 4 4 4 4 4 4 4 4 
4.92 0.04 6.92 5.69 6.99 0.62 1.56 6.55 1.94 0.52 2.91 2.4 2.1 6.29 1.84 0.78 7.27 5.57 4.82 7 6.26 6.8 4.39 5.4 0.41 7.82 3.57 0.36 1.75 7.74 2.19 6.93 6.36 5.52 3.51 2.69 4.79 1 1.98 4.04 0.05 2.18 1.82 3.93 0.82 7.61 7.46 5.32 
1 1 1 1 1 1 1 1 1 1 1 1 1 1 1 1 1 1 1 1 1 1 1 1 1 1 1 1 1 1 1 1 1 1 1 1 1 1 1 1 1 1 1 1 1 1 1 1 
1 1 1 1 1 1 1 1 1 1 1 1 1 1 1 1 1 1 1 1 1 1 1 1 1 1 1 1 1 1 1 1 1 1 1 1 1 1 1 1 1 1 1 1 1 1 1 1 
1 1 1 1 1 1 1 1 1 1 1 1 1 1 1 1 1 1 1 1 1 1 1 1 1 1 1 1 1 1 1 1 1 1 1 1 1 1 1 1 1 1 1 1 1 1 1 1 
0.01 0.01 0.01 0.01 0.01 0.01 0.01 0.01 0.01 0.01 0.01 0.01 0.01 0.01 0.01 0.01 0.01 0.01 0.01 0.01 0.01 0.01 0.01 0.01 0.01 0.01 0.01 0.01 0.01 0.01 0.01 0.01 0.01 0.01 0.01 0.01 0.01 0.01 0.01 0.01 0.01 0.01 0.01 0.01 0.01 0.01 0.01 0.01 
0.02 0.02 0.02 0.02 0.02 0.02 0.02 0.02 0.02 0.02 0.02 0.02 0.02 0.02 0.02 0.02 0.02 0.02 0.02 0.02 0.02 0.02 0.02 0.02 0.02 0.02 0.02 0.02 0.02 0.02 0.02 0.02 0.02 0.02 0.02 0.02 0.02 0.02 0.02 0.02 0.02 0.02 0.02 0.02 0.02 0.02 0.02 0.02 
1 1 1 1 1 1 1 1 1 1 1 1 1 1 1 1 1 1 1 1 1 1 1 1 1 1 1 1 1 1 1 1 1 1 1 1 1 1 1 1 1 1 1 1 1 1 1 1 
